NAME: tsp20-12
TYPE: TSP
DIMENSION: 20
EDGE_WEIGHT_TYPE: EUC_2D
NODE_COORD_SECTION
0 19 92
1 97 1
2 43 87
3 19 66
4 16 84
5 79 55
6 6 5
7 15 31
8 14 7
9 28 16
10 20 97
11 49 50
12 54 3
13 98 15
14 94 73
15 56 24
16 48 29
17 29 62
18 1 65
19 36 15
EOF